; DUP1 SLOAD DUP3 SWAP1 => DUP2 DUP2 SLOAD
(set-option :produce-proofs true)
; 
(set-info :status unknown)
(declare-fun storage_t ((_ BitVec 256) (_ BitVec 256) (_ BitVec 256) Int (_ BitVec 256)) (_ BitVec 256))
(declare-fun storage_s ((_ BitVec 256) (_ BitVec 256) (_ BitVec 256) Int (_ BitVec 256)) (_ BitVec 256))
(declare-fun exc_halt_t (Int) Bool)
(declare-fun exc_halt_s (Int) Bool)
(declare-fun sc_t (Int) (_ BitVec 6))
(declare-fun stack_t ((_ BitVec 256) (_ BitVec 256) (_ BitVec 256) Int (_ BitVec 6)) (_ BitVec 256))
(declare-fun stack_s ((_ BitVec 256) (_ BitVec 256) (_ BitVec 256) Int (_ BitVec 6)) (_ BitVec 256))
(declare-fun sc_s (Int) (_ BitVec 6))
(declare-fun used_gas_t ((_ BitVec 256) (_ BitVec 256) (_ BitVec 256) Int) Int)
(declare-fun used_gas_s ((_ BitVec 256) (_ BitVec 256) (_ BitVec 256) Int) Int)
(assert
 (exists ((x_0 (_ BitVec 256)) (x_1 (_ BitVec 256)) (x_SLOAD_0 (_ BitVec 256)) )(let (($x5292 (forall ((w (_ BitVec 256)) )(let ((?x10163 (storage_t x_0 x_1 x_SLOAD_0 3 w)))
 (let ((?x9358 (storage_s x_0 x_1 x_SLOAD_0 4 w)))
 (= ?x9358 ?x10163))))
 ))
 (let (($x9131 (exc_halt_t 3)))
 (let (($x9175 (exc_halt_s 4)))
 (let (($x826 (= $x9175 $x9131)))
 (let (($x2452 (forall ((n (_ BitVec 6)) )(let ((?x10013 (sc_t 3)))
 (let (($x2131 (bvsle ?x10013 n)))
 (let ((?x11070 (stack_t x_0 x_1 x_SLOAD_0 3 n)))
 (let ((?x11719 (stack_s x_0 x_1 x_SLOAD_0 4 n)))
 (let (($x1837 (= ?x11719 ?x11070)))
 (or $x1837 $x2131)))))))
 ))
 (let ((?x10013 (sc_t 3)))
 (let ((?x9433 (sc_s 4)))
 (let (($x5827 (= ?x9433 ?x10013)))
 (let ((?x391 (used_gas_t x_0 x_1 x_SLOAD_0 0)))
 (let ((?x11076 (used_gas_s x_0 x_1 x_SLOAD_0 0)))
 (let (($x6133 (= ?x11076 ?x391)))
 (let (($x6140 (forall ((w (_ BitVec 256)) )(let ((?x3519 (storage_t x_0 x_1 x_SLOAD_0 0 w)))
 (let ((?x11073 (storage_s x_0 x_1 x_SLOAD_0 0 w)))
 (= ?x11073 ?x3519))))
 ))
 (let (($x56 (exc_halt_t 0)))
 (let (($x57 (exc_halt_s 0)))
 (let (($x58 (= $x57 $x56)))
 (let (($x5836 (forall ((n (_ BitVec 6)) )(let ((?x63 (sc_t 0)))
 (let (($x4370 (bvsle ?x63 n)))
 (let ((?x9271 (stack_t x_0 x_1 x_SLOAD_0 0 n)))
 (let ((?x11182 (stack_s x_0 x_1 x_SLOAD_0 0 n)))
 (let (($x2577 (= ?x11182 ?x9271)))
 (or $x2577 $x4370)))))))
 ))
 (let ((?x63 (sc_t 0)))
 (let ((?x72 (sc_s 0)))
 (let (($x73 (= ?x72 ?x63)))
 (let (($x2061 (= $x9131 (or (exc_halt_t 2) (not (bvsle (_ bv0 6) (bvadd (_ bv63 6) (sc_t 2))))))))
 (let (($x3043 (forall ((w (_ BitVec 256)) )(let ((?x6814 (storage_t x_0 x_1 x_SLOAD_0 2 w)))
 (let ((?x10163 (storage_t x_0 x_1 x_SLOAD_0 3 w)))
 (= ?x10163 ?x6814))))
 ))
 (let (($x1941 (forall ((n (_ BitVec 6)) )(let ((?x11248 (sc_t 2)))
 (let ((?x7848 (bvadd (_ bv63 6) ?x11248)))
 (let (($x2785 (bvsle ?x7848 n)))
 (let ((?x4481 (stack_t x_0 x_1 x_SLOAD_0 2 n)))
 (let ((?x11070 (stack_t x_0 x_1 x_SLOAD_0 3 n)))
 (or (= ?x11070 ?x4481) $x2785)))))))
 ))
 (let ((?x11248 (sc_t 2)))
 (let (($x1017 (= ?x10013 ?x11248)))
 (let (($x3988 (= (used_gas_t x_0 x_1 x_SLOAD_0 3) (+ 200 (used_gas_t x_0 x_1 x_SLOAD_0 2)))))
 (let ((?x7848 (bvadd (_ bv63 6) ?x11248)))
 (let ((?x10466 (stack_t x_0 x_1 x_SLOAD_0 2 ?x7848)))
 (let (($x3582 (= (stack_t x_0 x_1 x_SLOAD_0 3 (bvadd (_ bv63 6) ?x10013)) (storage_t x_0 x_1 x_SLOAD_0 2 ?x10466))))
 (let (($x8478 (not (= ((_ extract 6 6) (bvadd (_ bv1 7) (concat (_ bv0 1) (sc_t 1)))) (_ bv0 1)))))
 (let (($x4852 (exc_halt_t 1)))
 (let (($x3359 (not (bvsle (_ bv0 6) (bvadd (_ bv62 6) (sc_t 1))))))
 (let (($x6733 (exc_halt_t 2)))
 (let (($x922 (= $x6733 (or $x3359 $x4852 $x8478))))
 (let (($x3240 (forall ((w (_ BitVec 256)) )(let ((?x3869 (storage_t x_0 x_1 x_SLOAD_0 1 w)))
 (let ((?x6814 (storage_t x_0 x_1 x_SLOAD_0 2 w)))
 (= ?x6814 ?x3869))))
 ))
 (let (($x7030 (forall ((n (_ BitVec 6)) )(let ((?x10790 (stack_t x_0 x_1 x_SLOAD_0 1 n)))
 (let ((?x4481 (stack_t x_0 x_1 x_SLOAD_0 2 n)))
 (let ((?x9666 (sc_t 1)))
 (let ((?x4766 (bvadd (_ bv62 6) ?x9666)))
 (let (($x2948 (bvsle ?x4766 n)))
 (or $x2948 (= ?x4481 ?x10790))))))))
 ))
 (let (($x9195 (= ?x11248 (bvadd (_ bv1 6) (sc_t 1)))))
 (let ((?x4875 (used_gas_t x_0 x_1 x_SLOAD_0 2)))
 (let ((?x9666 (sc_t 1)))
 (let ((?x5733 (bvadd (_ bv63 6) ?x9666)))
 (let ((?x2326 (stack_t x_0 x_1 x_SLOAD_0 1 ?x5733)))
 (let ((?x4766 (bvadd (_ bv62 6) ?x9666)))
 (let ((?x9272 (stack_t x_0 x_1 x_SLOAD_0 1 ?x4766)))
 (let (($x10919 (not (= ((_ extract 6 6) (bvadd (_ bv1 7) (concat (_ bv0 1) ?x63))) (_ bv0 1)))))
 (let (($x2461 (not (bvsle (_ bv0 6) (bvadd (_ bv62 6) ?x63)))))
 (let (($x1649 (forall ((w (_ BitVec 256)) )(let ((?x3519 (storage_t x_0 x_1 x_SLOAD_0 0 w)))
 (let ((?x3869 (storage_t x_0 x_1 x_SLOAD_0 1 w)))
 (= ?x3869 ?x3519))))
 ))
 (let (($x8531 (forall ((n (_ BitVec 6)) )(let ((?x9271 (stack_t x_0 x_1 x_SLOAD_0 0 n)))
 (let ((?x10790 (stack_t x_0 x_1 x_SLOAD_0 1 n)))
 (let ((?x63 (sc_t 0)))
 (let ((?x7612 (bvadd (_ bv62 6) ?x63)))
 (let (($x2844 (bvsle ?x7612 n)))
 (or $x2844 (= ?x10790 ?x9271))))))))
 ))
 (let (($x11820 (= ?x9666 (bvadd (_ bv1 6) ?x63))))
 (let (($x3842 (= (stack_t x_0 x_1 x_SLOAD_0 1 (bvadd (_ bv63 6) ?x63)) (stack_t x_0 x_1 x_SLOAD_0 0 (bvadd (_ bv63 6) ?x63)))))
 (let ((?x7612 (bvadd (_ bv62 6) ?x63)))
 (let ((?x744 (stack_t x_0 x_1 x_SLOAD_0 0 ?x7612)))
 (let (($x706 (= $x9175 (or (exc_halt_s 3) (not (bvsle (_ bv0 6) (bvadd (_ bv62 6) (sc_s 3))))))))
 (let (($x6912 (forall ((w (_ BitVec 256)) )(let ((?x3226 (storage_s x_0 x_1 x_SLOAD_0 3 w)))
 (let ((?x9358 (storage_s x_0 x_1 x_SLOAD_0 4 w)))
 (= ?x9358 ?x3226))))
 ))
 (let (($x11338 (forall ((n (_ BitVec 6)) )(let ((?x3851 (sc_s 3)))
 (let ((?x1068 (bvadd (_ bv62 6) ?x3851)))
 (let (($x6547 (bvsle ?x1068 n)))
 (let ((?x9391 (stack_s x_0 x_1 x_SLOAD_0 3 n)))
 (let ((?x11719 (stack_s x_0 x_1 x_SLOAD_0 4 n)))
 (or (= ?x11719 ?x9391) $x6547)))))))
 ))
 (let ((?x3851 (sc_s 3)))
 (let (($x6040 (= ?x9433 ?x3851)))
 (let (($x10891 (= (used_gas_s x_0 x_1 x_SLOAD_0 4) (+ 3 (used_gas_s x_0 x_1 x_SLOAD_0 3)))))
 (let ((?x9751 (bvadd (_ bv63 6) ?x3851)))
 (let ((?x8809 (stack_s x_0 x_1 x_SLOAD_0 3 ?x9751)))
 (let (($x5447 (= (stack_s x_0 x_1 x_SLOAD_0 4 (bvadd (_ bv63 6) ?x9433)) (stack_s x_0 x_1 x_SLOAD_0 3 (bvadd (_ bv62 6) ?x3851)))))
 (let (($x11936 (not (= ((_ extract 6 6) (bvadd (_ bv1 7) (concat (_ bv0 1) (sc_s 2)))) (_ bv0 1)))))
 (let (($x10272 (not (bvsle (_ bv0 6) (bvadd (_ bv61 6) (sc_s 2))))))
 (let (($x10052 (exc_halt_s 2)))
 (let (($x8103 (exc_halt_s 3)))
 (let (($x5765 (forall ((w (_ BitVec 256)) )(let ((?x3147 (storage_s x_0 x_1 x_SLOAD_0 2 w)))
 (let ((?x3226 (storage_s x_0 x_1 x_SLOAD_0 3 w)))
 (= ?x3226 ?x3147))))
 ))
 (let (($x1877 (forall ((n (_ BitVec 6)) )(let ((?x2272 (sc_s 2)))
 (let ((?x9440 (bvadd (_ bv61 6) ?x2272)))
 (let (($x7207 (bvsle ?x9440 n)))
 (let ((?x5380 (stack_s x_0 x_1 x_SLOAD_0 2 n)))
 (let ((?x9391 (stack_s x_0 x_1 x_SLOAD_0 3 n)))
 (or (= ?x9391 ?x5380) $x7207)))))))
 ))
 (let (($x2865 (= ?x3851 (bvadd (_ bv1 6) (sc_s 2)))))
 (let ((?x4328 (used_gas_s x_0 x_1 x_SLOAD_0 3)))
 (let ((?x2272 (sc_s 2)))
 (let ((?x5283 (bvadd (_ bv63 6) ?x2272)))
 (let ((?x1221 (stack_s x_0 x_1 x_SLOAD_0 2 ?x5283)))
 (let (($x3218 (= (stack_s x_0 x_1 x_SLOAD_0 3 (bvadd (_ bv62 6) ?x2272)) (stack_s x_0 x_1 x_SLOAD_0 2 (bvadd (_ bv62 6) ?x2272)))))
 (let ((?x9440 (bvadd (_ bv61 6) ?x2272)))
 (let ((?x4135 (stack_s x_0 x_1 x_SLOAD_0 2 ?x9440)))
 (let (($x7255 (= $x10052 (or (exc_halt_s 1) (not (bvsle (_ bv0 6) (bvadd (_ bv63 6) (sc_s 1))))))))
 (let (($x4296 (forall ((w (_ BitVec 256)) )(let ((?x3989 (storage_s x_0 x_1 x_SLOAD_0 1 w)))
 (let ((?x3147 (storage_s x_0 x_1 x_SLOAD_0 2 w)))
 (= ?x3147 ?x3989))))
 ))
 (let (($x6030 (forall ((n (_ BitVec 6)) )(let ((?x10860 (stack_s x_0 x_1 x_SLOAD_0 1 n)))
 (let ((?x5380 (stack_s x_0 x_1 x_SLOAD_0 2 n)))
 (let ((?x154 (sc_s 1)))
 (let ((?x9317 (bvadd (_ bv63 6) ?x154)))
 (let (($x1815 (bvsle ?x9317 n)))
 (or $x1815 (= ?x5380 ?x10860))))))))
 ))
 (let ((?x154 (sc_s 1)))
 (let (($x2312 (= ?x2272 ?x154)))
 (let ((?x7094 (used_gas_s x_0 x_1 x_SLOAD_0 2)))
 (let ((?x9317 (bvadd (_ bv63 6) ?x154)))
 (let ((?x11822 (stack_s x_0 x_1 x_SLOAD_0 1 ?x9317)))
 (let (($x6025 (not (bvsle (_ bv0 6) (bvadd (_ bv63 6) ?x72)))))
 (let (($x3534 (not (= ((_ extract 6 6) (bvadd (_ bv1 7) (concat (_ bv0 1) ?x72))) (_ bv0 1)))))
 (let (($x8780 (exc_halt_s 1)))
 (let (($x11599 (= $x8780 (or $x57 $x3534 $x6025))))
 (let (($x7230 (forall ((w (_ BitVec 256)) )(let ((?x11073 (storage_s x_0 x_1 x_SLOAD_0 0 w)))
 (let ((?x3989 (storage_s x_0 x_1 x_SLOAD_0 1 w)))
 (= ?x3989 ?x11073))))
 ))
 (let (($x9031 (forall ((n (_ BitVec 6)) )(let ((?x72 (sc_s 0)))
 (let ((?x3268 (bvadd (_ bv63 6) ?x72)))
 (let (($x3916 (bvsle ?x3268 n)))
 (let ((?x11182 (stack_s x_0 x_1 x_SLOAD_0 0 n)))
 (let ((?x10860 (stack_s x_0 x_1 x_SLOAD_0 1 n)))
 (or (= ?x10860 ?x11182) $x3916)))))))
 ))
 (let (($x8172 (= ?x154 (bvadd (_ bv1 6) ?x72))))
 (let ((?x3268 (bvadd (_ bv63 6) ?x72)))
 (let ((?x59 (stack_s x_0 x_1 x_SLOAD_0 0 ?x3268)))
 (let (($x1214 (forall ((w (_ BitVec 256)) )(let ((?x8625 (ite (= w (stack_s x_0 x_1 x_SLOAD_0 1 (bvadd (_ bv63 6) (sc_s 1)))) x_SLOAD_0 (_ bv0 256))))
 (let ((?x11073 (storage_s x_0 x_1 x_SLOAD_0 0 w)))
 (= ?x11073 ?x8625))))
 ))
 (let (($x5469 (= ?x11076 0)))
 (let (($x2248 (not $x57)))
 (let (($x6994 (= (stack_s x_0 x_1 x_SLOAD_0 0 (_ bv1 6)) x_1)))
 (let (($x4862 (= (stack_s x_0 x_1 x_SLOAD_0 0 (_ bv0 6)) x_0)))
 (let (($x11128 (= ?x72 (_ bv2 6))))
 (and $x11128 $x4862 $x6994 $x2248 $x5469 $x1214 (= ?x11822 ?x59) (= (stack_s x_0 x_1 x_SLOAD_0 1 ?x3268) ?x59) (= (used_gas_s x_0 x_1 x_SLOAD_0 1) (+ 3 ?x11076)) $x8172 $x9031 $x7230 $x11599 (= ?x1221 (storage_s x_0 x_1 x_SLOAD_0 1 ?x11822)) (= ?x7094 (+ 200 (used_gas_s x_0 x_1 x_SLOAD_0 1))) $x2312 $x6030 $x4296 $x7255 (= ?x8809 ?x4135) (= (stack_s x_0 x_1 x_SLOAD_0 3 ?x9440) ?x4135) $x3218 (= (stack_s x_0 x_1 x_SLOAD_0 3 ?x5283) ?x1221) (= ?x4328 (+ 3 ?x7094)) $x2865 $x1877 $x5765 (= $x8103 (or $x10052 $x10272 $x11936)) $x5447 (= (stack_s x_0 x_1 x_SLOAD_0 4 (bvadd (_ bv62 6) ?x9433)) ?x8809) $x10891 $x6040 $x11338 $x6912 $x706 (= ?x2326 ?x744) (= (stack_t x_0 x_1 x_SLOAD_0 1 ?x7612) ?x744) $x3842 (= (used_gas_t x_0 x_1 x_SLOAD_0 1) (+ 3 ?x391)) $x11820 $x8531 $x1649 (= $x4852 (or $x56 $x2461 $x10919)) (= ?x10466 ?x9272) (= (stack_t x_0 x_1 x_SLOAD_0 2 ?x4766) ?x9272) (= (stack_t x_0 x_1 x_SLOAD_0 2 ?x5733) ?x2326) (= ?x4875 (+ 3 (used_gas_t x_0 x_1 x_SLOAD_0 1))) $x9195 $x7030 $x3240 $x922 $x3582 $x3988 $x1017 $x1941 $x3043 $x2061 $x73 $x5836 $x58 $x6140 $x6133 (not (and $x5827 $x2452 $x826 $x5292))))))))))))))))))))))))))))))))))))))))))))))))))))))))))))))))))))))))))))))))))))))))))))))))))))
 )
(check-sat)
(get-proof)
